
;this file is automatically generated: Sun Oct 25 10:43:48 CST 2020

;declarations generated

(declare-fun type_84b0cda7_8b35_472f_9f2b_5dd162e176c0_Class21 ( Int) Bool)
(declare-fun type_84b0cda7_8b35_472f_9f2b_5dd162e176c0_Class7 ( Int) Bool)
(declare-fun type_84b0cda7_8b35_472f_9f2b_5dd162e176c0_Class20 ( Int) Bool)
(declare-fun type_84b0cda7_8b35_472f_9f2b_5dd162e176c0_Class6 ( Int) Bool)
(declare-fun type_84b0cda7_8b35_472f_9f2b_5dd162e176c0_Class19 ( Int) Bool)
(declare-fun type_84b0cda7_8b35_472f_9f2b_5dd162e176c0_Class18 ( Int) Bool)
(declare-fun type_84b0cda7_8b35_472f_9f2b_5dd162e176c0_Class17 ( Int) Bool)
(declare-fun oclExcludes ( Int Int) Bool)
(declare-fun Cardinality ( Int) Int)
(declare-fun class7_Class7IntAttr2 ( Int) Int)
(declare-fun oclSelect ( Int Bool) Int)
(declare-fun Enum0 ( Int) Int)
(declare-fun Enum1 ( Int) Int)
(declare-fun obj_126d06ba_0948_4196_a895_39804896a710 ( Int) Int)
(declare-fun container_ ( Int) Int)
(declare-fun oclIncludes ( Int Int) Bool)
(declare-fun ObjAt ( Int Int) Int)

;formula(s) generated
(assert (! (forall ((v Int)) (=> (and (and (and (and (and (and ( type_84b0cda7_8b35_472f_9f2b_5dd162e176c0_Class7 v )  ( type_84b0cda7_8b35_472f_9f2b_5dd162e176c0_Class18 v ) ) ( type_84b0cda7_8b35_472f_9f2b_5dd162e176c0_Class17 v ) ) ( type_84b0cda7_8b35_472f_9f2b_5dd162e176c0_Class19 v ) ) ( type_84b0cda7_8b35_472f_9f2b_5dd162e176c0_Class6 v ) ) ( type_84b0cda7_8b35_472f_9f2b_5dd162e176c0_Class21 v ) ) ( type_84b0cda7_8b35_472f_9f2b_5dd162e176c0_Class20 v ) ) (or (<= ( class7_Class7IntAttr2 ( obj_126d06ba_0948_4196_a895_39804896a710 v )  )  19) (and (forall ((v Int)) (=> (and (and (and (and (and (and ( type_84b0cda7_8b35_472f_9f2b_5dd162e176c0_Class7 v )  ( type_84b0cda7_8b35_472f_9f2b_5dd162e176c0_Class18 v ) ) ( type_84b0cda7_8b35_472f_9f2b_5dd162e176c0_Class17 v ) ) ( type_84b0cda7_8b35_472f_9f2b_5dd162e176c0_Class19 v ) ) ( type_84b0cda7_8b35_472f_9f2b_5dd162e176c0_Class6 v ) ) ( type_84b0cda7_8b35_472f_9f2b_5dd162e176c0_Class21 v ) ) ( type_84b0cda7_8b35_472f_9f2b_5dd162e176c0_Class20 v ) ) (< ( class7_Class7IntAttr2 ( obj_126d06ba_0948_4196_a895_39804896a710 v )  )  16))) (forall ((v Int)) (=> (and (and (and (and (and (and ( type_84b0cda7_8b35_472f_9f2b_5dd162e176c0_Class7 v )  ( type_84b0cda7_8b35_472f_9f2b_5dd162e176c0_Class18 v ) ) ( type_84b0cda7_8b35_472f_9f2b_5dd162e176c0_Class17 v ) ) ( type_84b0cda7_8b35_472f_9f2b_5dd162e176c0_Class19 v ) ) ( type_84b0cda7_8b35_472f_9f2b_5dd162e176c0_Class6 v ) ) ( type_84b0cda7_8b35_472f_9f2b_5dd162e176c0_Class21 v ) ) ( type_84b0cda7_8b35_472f_9f2b_5dd162e176c0_Class20 v ) ) (= ( class7_Class7IntAttr2 ( obj_126d06ba_0948_4196_a895_39804896a710 v )  )  7))))))):named l0))
(assert (exists ((o Int)) (and (and (and (and (and (and ( type_84b0cda7_8b35_472f_9f2b_5dd162e176c0_Class7 ( obj_126d06ba_0948_4196_a895_39804896a710 o )  )  ( type_84b0cda7_8b35_472f_9f2b_5dd162e176c0_Class18 ( obj_126d06ba_0948_4196_a895_39804896a710 o )  ) ) ( type_84b0cda7_8b35_472f_9f2b_5dd162e176c0_Class17 ( obj_126d06ba_0948_4196_a895_39804896a710 o )  ) ) ( type_84b0cda7_8b35_472f_9f2b_5dd162e176c0_Class19 ( obj_126d06ba_0948_4196_a895_39804896a710 o )  ) ) ( type_84b0cda7_8b35_472f_9f2b_5dd162e176c0_Class6 ( obj_126d06ba_0948_4196_a895_39804896a710 o )  ) ) ( type_84b0cda7_8b35_472f_9f2b_5dd162e176c0_Class21 ( obj_126d06ba_0948_4196_a895_39804896a710 o )  ) ) ( type_84b0cda7_8b35_472f_9f2b_5dd162e176c0_Class20 ( obj_126d06ba_0948_4196_a895_39804896a710 o )  ) )))

 ;end of formula 